NAME : XML100_3324_21
DIMENSION : 101
NB_CLUSTERS : 3
CLUSTERING_ALG : KMedoids
CLUSTERING_PARAMS : k(2)
CLUSTERS
1 0
2 2 3 5 6 12 13 14 15 18 19 21 23 26 27 28 30 32 33 35 42 45 48 50 52 54 59 63 69 71 74 77 78 80 82 83 84 92 95 96 97
3 1 4 7 8 9 10 11 16 17 20 22 24 25 29 31 34 36 37 38 39 40 41 43 44 46 47 49 51 53 55 56 57 58 60 61 62 64 65 66 67 68 70 72 73 75 76 79 81 85 86 87 88 89 90 91 93 94 98 99 100
EOF